##TITLE=Silicon tetrafluoride
##JCAMP-DX=4.24
##DATA TYPE=INFRARED SPECTRUM
##CLASS=COBLENTZ
##ORIGIN=DOW CHEMICAL COMPANY
##OWNER=COBLENTZ SOC.
Collection (C) 2018 copyright by the U.S. Secretary of Commerce
on behalf of the United States of America. All rights reserved.
##DATE=1964
##NAMES=tetrafluorosilane
##CAS REGISTRY NO=7783-61-1
##MOLFORM=F4 Si
##SOURCE REFERENCE=COBLENTZ NO. 08762
##$NIST SOURCE=COBLENTZ
##$NIST IMAGE=cob8762
##SPECTROMETER/DATA SYSTEM=DOW KBr FOREPRISM-GRATING
##INSTRUMENT PARAMETERS=GRATING CHANGED AT 5.0, 7.5, 15.0 MICRON
##STATE=GAS (490 mmHg, N2 ADDED, TOTAL PRESSURE 600 mmHg)
##PATH LENGTH=5 CM
##SAMPLING PROCEDURE=TRANSMISSION
##RESOLUTION=2
##DATA PROCESSING=DIGITIZED BY COBLENTZ SOCIETY (BATCH I) FROM HARD COPY
##XUNITS=1/CM
##YUNITS=TRANSMITTANCE
##XLABEL=Wavenumbers (cm-1)
##YLABEL=% Transmission
##XFACTOR=1
##YFACTOR=1
##DELTAX=1
##FIRSTX=463
##LASTX=3794
##FIRSTY=0.8425
##MAXX=3794
##MINX=463
##MAXY=0.8591
##MINY=0.0041
##NPOINTS=3332
##XYDATA=(X++(Y..Y))
463.000000 0.8425 0.8424 0.8423 0.8421 0.8421
468.000000 0.8420 0.8418 0.8417 0.8416 0.8415
473.000000 0.8413 0.8412 0.8410 0.8407 0.8404
478.000000 0.8401 0.8398 0.8395 0.8392 0.8389
483.000000 0.8386 0.8383 0.8378 0.8375 0.8371
488.000000 0.8367 0.8362 0.8358 0.8354 0.8349
493.000000 0.8345 0.8340 0.8336 0.8331 0.8327
498.000000 0.8321 0.8318 0.8314 0.8309 0.8305
503.000000 0.8300 0.8296 0.8291 0.8287 0.8284
508.000000 0.8281 0.8278 0.8275 0.8273 0.8270
513.000000 0.8267 0.8265 0.8262 0.8259 0.8256
518.000000 0.8256 0.8256 0.8256 0.8256 0.8256
523.000000 0.8256 0.8255 0.8255 0.8255 0.8255
528.000000 0.8255 0.8255 0.8255 0.8255 0.8254
533.000000 0.8254 0.8254 0.8254 0.8254 0.8254
538.000000 0.8255 0.8257 0.8258 0.8259 0.8260
543.000000 0.8261 0.8263 0.8264 0.8265 0.8266
548.000000 0.8267 0.8268 0.8270 0.8271 0.8271
553.000000 0.8273 0.8274 0.8275 0.8277 0.8278
558.000000 0.8281 0.8286 0.8290 0.8295 0.8299
563.000000 0.8304 0.8308 0.8313 0.8317 0.8321
568.000000 0.8325 0.8331 0.8335 0.8340 0.8344
573.000000 0.8350 0.8355 0.8360 0.8366 0.8371
578.000000 0.8377 0.8382 0.8387 0.8392 0.8395
583.000000 0.8398 0.8401 0.8403 0.8406 0.8409
588.000000 0.8412 0.8415 0.8417 0.8420 0.8423
593.000000 0.8425 0.8428 0.8428 0.8428 0.8430
598.000000 0.8431 0.8432 0.8432 0.8433 0.8434
603.000000 0.8435 0.8435 0.8436 0.8437 0.8438
608.000000 0.8439 0.8439 0.8440 0.8441 0.8442
613.000000 0.8443 0.8444 0.8446 0.8447 0.8448
618.000000 0.8449 0.8450 0.8451 0.8452 0.8453
623.000000 0.8453 0.8453 0.8453 0.8453 0.8453
628.000000 0.8453 0.8453 0.8453 0.8453 0.8453
633.000000 0.8453 0.8454 0.8454 0.8454 0.8455
638.000000 0.8455 0.8456 0.8457 0.8457 0.8457
643.000000 0.8457 0.8456 0.8455 0.8454 0.8453
648.000000 0.8452 0.8451 0.8450 0.8449 0.8448
653.000000 0.8448 0.8449 0.8450 0.8451 0.8452
658.000000 0.8453 0.8454 0.8455 0.8457 0.8460
663.000000 0.8462 0.8464 0.8464 0.8463 0.8455
668.000000 0.8446 0.8411 0.8375 0.8356 0.8373
673.000000 0.8392 0.8412 0.8435 0.8455 0.8466
678.000000 0.8480 0.8493 0.8500 0.8506 0.8512
683.000000 0.8518 0.8523 0.8528 0.8533 0.8538
688.000000 0.8541 0.8544 0.8547 0.8550 0.8553
693.000000 0.8554 0.8554 0.8554 0.8554 0.8554
698.000000 0.8555 0.8556 0.8558 0.8559 0.8560
703.000000 0.8562 0.8564 0.8568 0.8571 0.8575
708.000000 0.8578 0.8581 0.8583 0.8585 0.8587
713.000000 0.8589 0.8590 0.8590 0.8590 0.8590
718.000000 0.8591 0.8591 0.8591 0.8591 0.8589
723.000000 0.8583 0.8575 0.8570 0.8564 0.8558
728.000000 0.8553 0.8548 0.8540 0.8531 0.8521
733.000000 0.8512 0.8498 0.8483 0.8467 0.8452
738.000000 0.8436 0.8420 0.8403 0.8387 0.8371
743.000000 0.8353 0.8335 0.8317 0.8299 0.8281
748.000000 0.8264 0.8246 0.8228 0.8202 0.8175
753.000000 0.8150 0.8124 0.8093 0.8061 0.8031
758.000000 0.7994 0.7956 0.7917 0.7878 0.7828
763.000000 0.7778 0.7730 0.7637 0.7549 0.7475
768.000000 0.7375 0.7340 0.7340 0.7340 0.7346
773.000000 0.7362 0.7389 0.7422 0.7465 0.7487
778.000000 0.7506 0.7514 0.7511 0.7001 0.6471
783.000000 0.6405 0.6640 0.6875 0.7111 0.7347
788.000000 0.7582 0.7669 0.7678 0.7687 0.7700
793.000000 0.7719 0.7745 0.7774 0.7821 0.7868
798.000000 0.7921 0.7978 0.8037 0.8099 0.8162
803.000000 0.8234 0.8309 0.8378 0.8428 0.8461
808.000000 0.8474 0.8488 0.8499 0.8508 0.8517
813.000000 0.8523 0.8527 0.8531 0.8535 0.8538
818.000000 0.8541 0.8544 0.8547 0.8551 0.8551
823.000000 0.8544 0.8548 0.8547 0.8546 0.8545
828.000000 0.8541 0.8535 0.8530 0.8525 0.8516
833.000000 0.8496 0.8456 0.8368 0.8258 0.7955
838.000000 0.7732 0.7641 0.7515 0.7474 0.7439
843.000000 0.7439 0.7469 0.7482 0.7504 0.7528
848.000000 0.7555 0.7585 0.7826 0.8111 0.8398
853.000000 0.8493 0.8538 0.8563 0.8567 0.8570
858.000000 0.8571 0.8573 0.8574 0.8574 0.8574
863.000000 0.8574 0.8573 0.8571 0.8571 0.8568
868.000000 0.8568 0.8567 0.8564 0.8561 0.8558
873.000000 0.8555 0.8552 0.8547 0.8542 0.8538
878.000000 0.8533 0.8528 0.8524 0.8518 0.8515
883.000000 0.8510 0.8506 0.8502 0.8499 0.8496
888.000000 0.8493 0.8490 0.8487 0.8484 0.8484
893.000000 0.8478 0.8474 0.8467 0.8461 0.8454
898.000000 0.8447 0.8441 0.8434 0.8428 0.8421
903.000000 0.8418 0.8415 0.8411 0.8408 0.8404
908.000000 0.8401 0.8397 0.8398 0.8402 0.8405
913.000000 0.8409 0.8414 0.8418 0.8424 0.8428
918.000000 0.8434 0.8439 0.8446 0.8456 0.8465
923.000000 0.8475 0.8485 0.8494 0.8504 0.8512
928.000000 0.8518 0.8527 0.8534 0.8542 0.8549
933.000000 0.8556 0.8558 0.8560 0.8562 0.8564
938.000000 0.8565 0.8567 0.8567 0.8565 0.8564
943.000000 0.8562 0.8560 0.8558 0.8556 0.8554
948.000000 0.8552 0.8550 0.8546 0.8542 0.8538
953.000000 0.8534 0.8528 0.8525 0.8520 0.8515
958.000000 0.8510 0.8506 0.8501 0.8496 0.8489
963.000000 0.8478 0.8468 0.8459 0.8449 0.8439
968.000000 0.8428 0.8416 0.8402 0.8389 0.8362
973.000000 0.8336 0.8309 0.8283 0.8256 0.8218
978.000000 0.8180 0.8142 0.8104 0.8062 0.8007
983.000000 0.7950 0.7893 0.7837 0.7780 0.7724
988.000000 0.7618 0.7505 0.7398 0.7304 0.7210
993.000000 0.7056 0.6762 0.6480 0.5889 0.5665
998.000000 0.5129 0.4704 0.3410 0.2118 0.0825
1003.000000 0.0208 0.0131 0.0074 0.0060 0.0052
1008.000000 0.0048 0.0044 0.0042 0.0041 0.0041
1013.000000 0.0041 0.0043 0.0046 0.0049 0.0052
1018.000000 0.0059 0.0065 0.0072 0.0080 0.0087
1023.000000 0.0093 0.0099 0.0099 0.0098 0.0097
1028.000000 0.0095 0.0092 0.0090 0.0087 0.0086
1033.000000 0.0087 0.0088 0.0090 0.0092 0.0096
1038.000000 0.0102 0.0107 0.0113 0.0125 0.0144
1043.000000 0.0197 0.0344 0.0461 0.0704 0.1166
1048.000000 0.1627 0.2089 0.2551 0.3012 0.3474
1053.000000 0.4397 0.4847 0.5126 0.5405 0.5684
1058.000000 0.5962 0.6241 0.6519 0.6799 0.6945
1063.000000 0.7074 0.6465 0.6045 0.5706 0.5710
1068.000000 0.5714 0.6942 0.7918 0.8065 0.8124
1073.000000 0.8141 0.8141 0.8141 0.8121 0.8098
1078.000000 0.8082 0.8078 0.8086 0.8098 0.8115
1083.000000 0.8145 0.8186 0.8245 0.8325 0.8377
1088.000000 0.8421 0.8456 0.8491 0.8515 0.8539
1093.000000 0.8551 0.8559 0.8567 0.8571 0.8574
1098.000000 0.8577 0.8580 0.8582 0.8585 0.8587
1103.000000 0.8589 0.8591 0.8591 0.8590 0.8589
1108.000000 0.8589 0.8588 0.8588 0.8586 0.8585
1113.000000 0.8583 0.8582 0.8581 0.8578 0.8578
1118.000000 0.8575 0.8575 0.8573 0.8571 0.8570
1123.000000 0.8568 0.8567 0.8564 0.8560 0.8556
1128.000000 0.8552 0.8548 0.8542 0.8535 0.8528
1133.000000 0.8521 0.8510 0.8492 0.8475 0.8457
1138.000000 0.8432 0.8394 0.8357 0.8301 0.8242
1143.000000 0.8183 0.8097 0.8008 0.7910 0.7805
1148.000000 0.7667 0.7421 0.7187 0.7028 0.6871
1153.000000 0.6712 0.6555 0.6486 0.6475 0.6478
1158.000000 0.6508 0.6621 0.6734 0.6847 0.6960
1163.000000 0.7072 0.7089 0.6411 0.5244 0.4149
1168.000000 0.4175 0.4283 0.4391 0.4499 0.4557
1173.000000 0.4377 0.4080 0.3784 0.3489 0.3193
1178.000000 0.2897 0.2601 0.2473 0.2472 0.2472
1183.000000 0.2629 0.2878 0.3126 0.3375 0.3624
1188.000000 0.3873 0.4121 0.4332 0.4331 0.2334
1193.000000 0.0582 0.0570 0.1669 0.2535 0.3404
1198.000000 0.4243 0.4251 0.3991 0.3700 0.3410
1203.000000 0.3161 0.3172 0.3195 0.3400 0.3577
1208.000000 0.3753 0.3929 0.4105 0.4249 0.4487
1213.000000 0.4840 0.5125 0.5309 0.5630 0.5920
1218.000000 0.6264 0.6765 0.6907 0.7046 0.7174
1223.000000 0.7303 0.7417 0.7519 0.7621 0.7722
1228.000000 0.7821 0.7919 0.8024 0.8128 0.8198
1233.000000 0.8243 0.8254 0.8254 0.8254 0.8241
1238.000000 0.8223 0.8204 0.8186 0.8169 0.8145
1243.000000 0.8119 0.8094 0.8068 0.8045 0.8019
1248.000000 0.7996 0.7971 0.7950 0.7928 0.7905
1253.000000 0.7861 0.7815 0.7765 0.7698 0.7612
1258.000000 0.7438 0.7272 0.7108 0.6943 0.6778
1263.000000 0.6614 0.6449 0.6284 0.6119 0.5955
1268.000000 0.5790 0.5625 0.5426 0.5272 0.5160
1273.000000 0.5050 0.4878 0.4698 0.4540 0.4384
1278.000000 0.4247 0.4110 0.3987 0.3882 0.3778
1283.000000 0.3668 0.3545 0.3421 0.3264 0.3105
1288.000000 0.2992 0.2942 0.2909 0.2901 0.2901
1293.000000 0.2901 0.3061 0.3225 0.3357 0.4840
1298.000000 0.4822 0.4627 0.4152 0.3677 0.3380
1303.000000 0.3372 0.3709 0.4068 0.4427 0.4744
1308.000000 0.4875 0.4990 0.5345 0.5772 0.6364
1313.000000 0.6615 0.6815 0.6967 0.7051 0.7135
1318.000000 0.7225 0.7322 0.7421 0.7507 0.7624
1323.000000 0.7761 0.7898 0.8035 0.8119 0.8174
1328.000000 0.8224 0.8260 0.8297 0.8333 0.8368
1333.000000 0.8388 0.8407 0.8425 0.8442 0.8443
1338.000000 0.8444 0.8444 0.8445 0.8444 0.8444
1343.000000 0.8440 0.8437 0.8433 0.8428 0.8424
1348.000000 0.8418 0.8415 0.8410 0.8406 0.8401
1353.000000 0.8399 0.8398 0.8396 0.8395 0.8393
1358.000000 0.8392 0.8390 0.8395 0.8405 0.8415
1363.000000 0.8418 0.8418 0.8420 0.8415 0.8401
1368.000000 0.8388 0.8374 0.8363 0.8353 0.8343
1373.000000 0.8333 0.8323 0.8313 0.8310 0.8307
1378.000000 0.8304 0.8301 0.8298 0.8295 0.8292
1383.000000 0.8289 0.8286 0.8282 0.8278 0.8275
1388.000000 0.8271 0.8268 0.8264 0.8263 0.8262
1393.000000 0.8262 0.8263 0.8263 0.8264 0.8264
1398.000000 0.8265 0.8265 0.8266 0.8266 0.8267
1403.000000 0.8268 0.8268 0.8268 0.8271 0.8273
1408.000000 0.8275 0.8278 0.8280 0.8282 0.8284
1413.000000 0.8287 0.8290 0.8294 0.8298 0.8301
1418.000000 0.8305 0.8309 0.8301 0.8316 0.8320
1423.000000 0.8323 0.8327 0.8331 0.8336 0.8343
1428.000000 0.8350 0.8357 0.8364 0.8371 0.8378
1433.000000 0.8381 0.8383 0.8386 0.8388 0.8390
1438.000000 0.8391 0.8392 0.8392 0.8392 0.8392
1443.000000 0.8390 0.8384 0.8378 0.8374 0.8368
1448.000000 0.8363 0.8358 0.8353 0.8348 0.8343
1453.000000 0.8338 0.8334 0.8328 0.8325 0.8320
1458.000000 0.8320 0.8320 0.8320 0.8323 0.8331
1463.000000 0.8338 0.8345 0.8353 0.8360 0.8367
1468.000000 0.8374 0.8381 0.8386 0.8390 0.8395
1473.000000 0.8396 0.8395 0.8395 0.8394 0.8389
1478.000000 0.8385 0.8380 0.8375 0.8371 0.8368
1483.000000 0.8365 0.8361 0.8360 0.8359 0.8359
1488.000000 0.8358 0.8357 0.8357 0.8356 0.8356
1493.000000 0.8356 0.8355 0.8355 0.8354 0.8354
1498.000000 0.8354 0.8354 0.8354 0.8354 0.8355
1503.000000 0.8355 0.8356 0.8356 0.8357 0.8357
1508.000000 0.8357 0.8358 0.8359 0.8359 0.8360
1513.000000 0.8361 0.8362 0.8363 0.8363 0.8364
1518.000000 0.8365 0.8366 0.8367 0.8367 0.8368
1523.000000 0.8368 0.8368 0.8370 0.8370 0.8371
1528.000000 0.8371 0.8371 0.8373 0.8373 0.8374
1533.000000 0.8375 0.8375 0.8375 0.8377 0.8377
1538.000000 0.8378 0.8378 0.8380 0.8380 0.8381
1543.000000 0.8382 0.8382 0.8383 0.8384 0.8385
1548.000000 0.8385 0.8386 0.8387 0.8387 0.8386
1553.000000 0.8386 0.8384 0.8382 0.8380 0.8378
1558.000000 0.8377 0.8375 0.8373 0.8371 0.8371
1563.000000 0.8370 0.8370 0.8375 0.8381 0.8386
1568.000000 0.8391 0.8394 0.8395 0.8395 0.8395
1573.000000 0.8393 0.8392 0.8391 0.8390 0.8388
1578.000000 0.8387 0.8386 0.8385 0.8384 0.8383
1583.000000 0.8382 0.8382 0.8381 0.8381 0.8381
1588.000000 0.8380 0.8380 0.8380 0.8381 0.8381
1593.000000 0.8382 0.8383 0.8385 0.8386 0.8388
1598.000000 0.8389 0.8390 0.8392 0.8392 0.8392
1603.000000 0.8393 0.8393 0.8394 0.8394 0.8395
1608.000000 0.8395 0.8395 0.8396 0.8396 0.8397
1613.000000 0.8397 0.8397 0.8398 0.8398 0.8399
1618.000000 0.8399 0.8400 0.8400 0.8400 0.8401
1623.000000 0.8401 0.8400 0.8400 0.8400 0.8400
1628.000000 0.8400 0.8400 0.8399 0.8399 0.8399
1633.000000 0.8399 0.8399 0.8398 0.8398 0.8398
1638.000000 0.8398 0.8399 0.8400 0.8401 0.8402
1643.000000 0.8403 0.8404 0.8405 0.8404 0.8403
1648.000000 0.8400 0.8397 0.8394 0.8391 0.8386
1653.000000 0.8380 0.8375 0.8368 0.8364 0.8359
1658.000000 0.8354 0.8349 0.8345 0.8342 0.8340
1663.000000 0.8337 0.8335 0.8332 0.8328 0.8327
1668.000000 0.8324 0.8321 0.8318 0.8316 0.8313
1673.000000 0.8311 0.8310 0.8309 0.8308 0.8307
1678.000000 0.8306 0.8305 0.8304 0.8302 0.8301
1683.000000 0.8301 0.8300 0.8299 0.8299 0.8298
1688.000000 0.8297 0.8297 0.8296 0.8295 0.8295
1693.000000 0.8294 0.8293 0.8291 0.8290 0.8288
1698.000000 0.8287 0.8285 0.8284 0.8282 0.8281
1703.000000 0.8278 0.8278 0.8275 0.8275 0.8275
1708.000000 0.8275 0.8275 0.8275 0.8275 0.8274
1713.000000 0.8274 0.8274 0.8274 0.8274 0.8274
1718.000000 0.8273 0.8273 0.8273 0.8273 0.8273
1723.000000 0.8274 0.8274 0.8274 0.8275 0.8275
1728.000000 0.8275 0.8275 0.8275 0.8277 0.8277
1733.000000 0.8277 0.8278 0.8278 0.8277 0.8277
1738.000000 0.8277 0.8277 0.8277 0.8277 0.8275
1743.000000 0.8275 0.8275 0.8275 0.8275 0.8275
1748.000000 0.8275 0.8275 0.8275 0.8275 0.8275
1753.000000 0.8275 0.8275 0.8275 0.8275 0.8275
1758.000000 0.8275 0.8275 0.8275 0.8275 0.8273
1763.000000 0.8270 0.8268 0.8266 0.8263 0.8261
1768.000000 0.8259 0.8255 0.8249 0.8244 0.8238
1773.000000 0.8232 0.8225 0.8214 0.8202 0.8188
1778.000000 0.8172 0.8157 0.8142 0.8125 0.8110
1783.000000 0.8094 0.8075 0.8044 0.8012 0.7978
1788.000000 0.7937 0.7895 0.7850 0.7791 0.7733
1793.000000 0.7658 0.7582 0.7497 0.7395 0.7283
1798.000000 0.7136 0.6961 0.6754 0.6535 0.6315
1803.000000 0.6256 0.6499 0.6754 0.6750 0.6648
1808.000000 0.6775 0.6252 0.6231 0.6175 0.5929
1813.000000 0.5683 0.5436 0.5141 0.4649 0.3896
1818.000000 0.3157 0.2854 0.2608 0.2300 0.1743
1823.000000 0.1494 0.1245 0.0995 0.0872 0.0889
1828.000000 0.3390 0.3085 0.3183 0.1960 0.2660
1833.000000 0.1957 0.5507 0.6931 0.7928 0.8042
1838.000000 0.8137 0.8188 0.8215 0.8228 0.8238
1843.000000 0.8245 0.8253 0.8257 0.8261 0.8265
1848.000000 0.8268 0.8273 0.8277 0.8281 0.8284
1853.000000 0.8287 0.8290 0.8293 0.8296 0.8296
1858.000000 0.8297 0.8297 0.8296 0.8296 0.8295
1863.000000 0.8295 0.8295 0.8295 0.8296 0.8296
1868.000000 0.8297 0.8297 0.8298 0.8298 0.8299
1873.000000 0.8300 0.8301 0.8302 0.8304 0.8305
1878.000000 0.8306 0.8308 0.8309 0.8310 0.8312
1883.000000 0.8313 0.8314 0.8314 0.8315 0.8316
1888.000000 0.8317 0.8317 0.8317 0.8318 0.8318
1893.000000 0.8318 0.8318 0.8318 0.8320 0.8320
1898.000000 0.8320 0.8320 0.8318 0.8318 0.8318
1903.000000 0.8318 0.8318 0.8318 0.8318 0.8317
1908.000000 0.8317 0.8317 0.8317 0.8316 0.8316
1913.000000 0.8316 0.8315 0.8315 0.8315 0.8314
1918.000000 0.8314 0.8313 0.8313 0.8312 0.8312
1923.000000 0.8312 0.8311 0.8311 0.8310 0.8310
1928.000000 0.8309 0.8309 0.8308 0.8308 0.8307
1933.000000 0.8307 0.8306 0.8305 0.8305 0.8304
1938.000000 0.8303 0.8303 0.8302 0.8302 0.8301
1943.000000 0.8300 0.8300 0.8299 0.8298 0.8298
1948.000000 0.8297 0.8296 0.8295 0.8295 0.8294
1953.000000 0.8293 0.8292 0.8291 0.8290 0.8289
1958.000000 0.8288 0.8287 0.8287 0.8286 0.8285
1963.000000 0.8284 0.8283 0.8282 0.8281 0.8280
1968.000000 0.8280 0.8278 0.8278 0.8277 0.8275
1973.000000 0.8275 0.8271 0.8266 0.8261 0.8256
1978.000000 0.8251 0.8246 0.8241 0.8236 0.8232
1983.000000 0.8224 0.8216 0.8208 0.8199 0.8191
1988.000000 0.8182 0.8172 0.8162 0.8160 0.8158
1993.000000 0.8158 0.8165 0.8181 0.8228 0.8264
1998.000000 0.8273 0.8275 0.8259 0.8238 0.8217
2003.000000 0.8205 0.8194 0.8169 0.8146 0.8121
2008.000000 0.8096 0.8071 0.8046 0.8019 0.7995
2013.000000 0.7969 0.7945 0.7919 0.7895 0.7869
2018.000000 0.7845 0.7805 0.7765 0.7719 0.7675
2023.000000 0.7626 0.7578 0.7515 0.7451 0.7386
2028.000000 0.7321 0.7254 0.7188 0.7108 0.7031
2033.000000 0.6932 0.6833 0.6737 0.6642 0.6547
2038.000000 0.6451 0.6356 0.6260 0.6160 0.6062
2043.000000 0.5964 0.5866 0.5777 0.5689 0.5621
2048.000000 0.5554 0.5489 0.5424 0.5315 0.5206
2053.000000 0.5129 0.5052 0.5015 0.4978 0.4960
2058.000000 0.4944 0.4936 0.4929 0.4923 0.4904
2063.000000 0.5039 0.5160 0.5460 0.5759 0.5820
2068.000000 0.5881 0.5770 0.5879 0.5500 0.5340
2073.000000 0.5307 0.5274 0.5337 0.5401 0.5562
2078.000000 0.5282 0.5884 0.6046 0.6207 0.6368
2083.000000 0.6528 0.6691 0.6851 0.7012 0.7174
2088.000000 0.7336 0.7467 0.7599 0.7671 0.7744
2093.000000 0.7821 0.7898 0.7964 0.8031 0.8075
2098.000000 0.8118 0.8160 0.8202 0.8228 0.8255
2103.000000 0.8281 0.8308 0.8325 0.8342 0.8357
2108.000000 0.8373 0.8386 0.8400 0.8410 0.8420
2113.000000 0.8428 0.8439 0.8445 0.8451 0.8454
2118.000000 0.8457 0.8460 0.8463 0.8466 0.8468
2123.000000 0.8470 0.8471 0.8471 0.8471 0.8471
2128.000000 0.8473 0.8473 0.8474 0.8474 0.8474
2133.000000 0.8474 0.8474 0.8474 0.8474 0.8473
2138.000000 0.8473 0.8473 0.8471 0.8471 0.8471
2143.000000 0.8471 0.8471 0.8471 0.8471 0.8470
2148.000000 0.8470 0.8468 0.8468 0.8467 0.8467
2153.000000 0.8466 0.8465 0.8464 0.8464 0.8463
2158.000000 0.8462 0.8461 0.8460 0.8459 0.8459
2163.000000 0.8458 0.8457 0.8456 0.8456 0.8455
2168.000000 0.8454 0.8453 0.8453 0.8451 0.8449
2173.000000 0.8447 0.8446 0.8444 0.8443 0.8441
2178.000000 0.8439 0.8437 0.8436 0.8431 0.8427
2183.000000 0.8420 0.8413 0.8406 0.8400 0.8391
2188.000000 0.8382 0.8371 0.8362 0.8352 0.8342
2193.000000 0.8330 0.8318 0.8306 0.8293 0.8280
2198.000000 0.8268 0.8255 0.8243 0.8231 0.8218
2203.000000 0.8207 0.8195 0.8185 0.8175 0.8169
2208.000000 0.8165 0.8164 0.8162 0.8161 0.8154
2213.000000 0.8165 0.8168 0.8176 0.8186 0.8203
2218.000000 0.8220 0.8234 0.8249 0.8261 0.8274
2223.000000 0.8273 0.8271 0.8270 0.8286 0.8265
2228.000000 0.8263 0.8256 0.8250 0.8221 0.8192
2233.000000 0.8155 0.8118 0.8099 0.8080 0.8076
2238.000000 0.8075 0.8075 0.8055 0.8078 0.8081
2243.000000 0.8098 0.8115 0.8131 0.8148 0.8168
2248.000000 0.8190 0.8212 0.8235 0.8262 0.8289
2253.000000 0.8313 0.8337 0.8359 0.8382 0.8400
2258.000000 0.8418 0.8436 0.8453 0.8460 0.8467
2263.000000 0.8473 0.8480 0.8482 0.8485 0.8488
2268.000000 0.8491 0.8492 0.8493 0.8493 0.8494
2273.000000 0.8494 0.8493 0.8493 0.8492 0.8490
2278.000000 0.8489 0.8487 0.8496 0.8484 0.8482
2283.000000 0.8480 0.8478 0.8477 0.8475 0.8474
2288.000000 0.8471 0.8468 0.8464 0.8460 0.8456
2293.000000 0.8452 0.8448 0.8444 0.8440 0.8436
2298.000000 0.8432 0.8427 0.8423 0.8418 0.8413
2303.000000 0.8408 0.8404 0.8399 0.8394 0.8388
2308.000000 0.8383 0.8377 0.8371 0.8364 0.8358
2313.000000 0.8352 0.8346 0.8340 0.8334 0.8328
2318.000000 0.8321 0.8316 0.8310 0.8304 0.8298
2323.000000 0.8292 0.8286 0.8280 0.8274 0.8268
2328.000000 0.8263 0.8258 0.8253 0.8248 0.8244
2333.000000 0.8239 0.8234 0.8233 0.8233 0.8233
2338.000000 0.8233 0.8234 0.8235 0.8239 0.8243
2343.000000 0.8249 0.8255 0.8261 0.8268 0.8275
2348.000000 0.8282 0.8289 0.8296 0.8303 0.8310
2353.000000 0.8314 0.8318 0.8321 0.8325 0.8327
2358.000000 0.8328 0.8330 0.8331 0.8331 0.8332
2363.000000 0.8333 0.8334 0.8337 0.8341 0.8344
2368.000000 0.8348 0.8354 0.8361 0.8368 0.8377
2373.000000 0.8384 0.8392 0.8399 0.8407 0.8413
2378.000000 0.8418 0.8425 0.8432 0.8438 0.8444
2383.000000 0.8449 0.8455 0.8460 0.8466 0.8471
2388.000000 0.8477 0.8482 0.8487 0.8490 0.8494
2393.000000 0.8497 0.8501 0.8504 0.8507 0.8509
2398.000000 0.8512 0.8513 0.8514 0.8514 0.8515
2403.000000 0.8516 0.8517 0.8518 0.8518 0.8518
2408.000000 0.8518 0.8517 0.8517 0.8516 0.8516
2413.000000 0.8515 0.8514 0.8513 0.8513 0.8512
2418.000000 0.8512 0.8511 0.8511 0.8511 0.8511
2423.000000 0.8510 0.8510 0.8510 0.8510 0.8509
2428.000000 0.8509 0.8509 0.8509 0.8509 0.8509
2433.000000 0.8509 0.8510 0.8510 0.8510 0.8510
2438.000000 0.8511 0.8511 0.8511 0.8511 0.8512
2443.000000 0.8512 0.8512 0.8512 0.8513 0.8513
2448.000000 0.8513 0.8513 0.8514 0.8514 0.8514
2453.000000 0.8514 0.8515 0.8515 0.8515 0.8515
2458.000000 0.8516 0.8516 0.8516 0.8516 0.8516
2463.000000 0.8516 0.8517 0.8517 0.8517 0.8517
2468.000000 0.8517 0.8517 0.8517 0.8516 0.8515
2473.000000 0.8514 0.8514 0.8513 0.8513 0.8512
2478.000000 0.8512 0.8511 0.8510 0.8509 0.8509
2483.000000 0.8508 0.8508 0.8507 0.8507 0.8506
2488.000000 0.8506 0.8505 0.8504 0.8503 0.8503
2493.000000 0.8503 0.8503 0.8503 0.8503 0.8502
2498.000000 0.8502 0.8502 0.8502 0.8502 0.8502
2503.000000 0.8501 0.8501 0.8501 0.8501 0.8501
2508.000000 0.8501 0.8501 0.8501 0.8500 0.8500
2513.000000 0.8500 0.8500 0.8500 0.8500 0.8499
2518.000000 0.8499 0.8499 0.8499 0.8499 0.8499
2523.000000 0.8499 0.8499 0.8498 0.8498 0.8498
2528.000000 0.8498 0.8498 0.8498 0.8497 0.8497
2533.000000 0.8497 0.8497 0.8496 0.8496 0.8495
2538.000000 0.8495 0.8494 0.8494 0.8493 0.8493
2543.000000 0.8492 0.8492 0.8491 0.8491 0.8490
2548.000000 0.8490 0.8489 0.8489 0.8488 0.8488
2553.000000 0.8487 0.8487 0.8486 0.8486 0.8485
2558.000000 0.8485 0.8484 0.8484 0.8483 0.8483
2563.000000 0.8482 0.8482 0.8481 0.8481 0.8480
2568.000000 0.8478 0.8478 0.8478 0.8477 0.8477
2573.000000 0.8475 0.8475 0.8475 0.8475 0.8475
2578.000000 0.8475 0.8475 0.8477 0.8477 0.8477
2583.000000 0.8477 0.8478 0.8478 0.8478 0.8478
2588.000000 0.8480 0.8480 0.8480 0.8480 0.8481
2593.000000 0.8481 0.8482 0.8482 0.8482 0.8482
2598.000000 0.8483 0.8483 0.8484 0.8484 0.8484
2603.000000 0.8484 0.8485 0.8485 0.8486 0.8486
2608.000000 0.8486 0.8486 0.8487 0.8487 0.8488
2613.000000 0.8488 0.8489 0.8489 0.8489 0.8489
2618.000000 0.8490 0.8490 0.8491 0.8491 0.8491
2623.000000 0.8491 0.8492 0.8492 0.8493 0.8493
2628.000000 0.8494 0.8494 0.8495 0.8495 0.8496
2633.000000 0.8496 0.8497 0.8498 0.8499 0.8499
2638.000000 0.8500 0.8500 0.8501 0.8501 0.8502
2643.000000 0.8502 0.8503 0.8504 0.8505 0.8505
2648.000000 0.8506 0.8506 0.8507 0.8507 0.8508
2653.000000 0.8508 0.8509 0.8509 0.8510 0.8511
2658.000000 0.8512 0.8512 0.8513 0.8513 0.8514
2663.000000 0.8514 0.8515 0.8515 0.8516 0.8516
2668.000000 0.8517 0.8518 0.8518 0.8518 0.8520
2673.000000 0.8520 0.8521 0.8521 0.8521 0.8521
2678.000000 0.8523 0.8523 0.8524 0.8524 0.8525
2683.000000 0.8525 0.8525 0.8525 0.8527 0.8527
2688.000000 0.8528 0.8528 0.8528 0.8528 0.8530
2693.000000 0.8530 0.8531 0.8532 0.8533 0.8533
2698.000000 0.8534 0.8534 0.8535 0.8535 0.8536
2703.000000 0.8536 0.8537 0.8537 0.8538 0.8538
2708.000000 0.8539 0.8539 0.8540 0.8540 0.8541
2713.000000 0.8541 0.8542 0.8542 0.8542 0.8542
2718.000000 0.8543 0.8543 0.8543 0.8543 0.8544
2723.000000 0.8544 0.8544 0.8544 0.8544 0.8544
2728.000000 0.8545 0.8545 0.8545 0.8545 0.8546
2733.000000 0.8546 0.8546 0.8546 0.8546 0.8546
2738.000000 0.8547 0.8547 0.8547 0.8547 0.8547
2743.000000 0.8547 0.8547 0.8547 0.8547 0.8547
2748.000000 0.8547 0.8547 0.8547 0.8547 0.8547
2753.000000 0.8547 0.8547 0.8547 0.8547 0.8547
2758.000000 0.8547 0.8547 0.8547 0.8547 0.8548
2763.000000 0.8548 0.8548 0.8548 0.8548 0.8548
2768.000000 0.8548 0.8548 0.8548 0.8547 0.8547
2773.000000 0.8546 0.8546 0.8545 0.8545 0.8544
2778.000000 0.8543 0.8542 0.8542 0.8541 0.8541
2783.000000 0.8540 0.8540 0.8539 0.8539 0.8538
2788.000000 0.8537 0.8536 0.8536 0.8535 0.8535
2793.000000 0.8534 0.8534 0.8533 0.8532 0.8531
2798.000000 0.8531 0.8530 0.8530 0.8528 0.8528
2803.000000 0.8528 0.8528 0.8527 0.8525 0.8525
2808.000000 0.8525 0.8524 0.8524 0.8523 0.8523
2813.000000 0.8521 0.8521 0.8521 0.8520 0.8518
2818.000000 0.8518 0.8518 0.8517 0.8515 0.8514
2823.000000 0.8512 0.8511 0.8510 0.8509 0.8507
2828.000000 0.8506 0.8504 0.8503 0.8501 0.8500
2833.000000 0.8499 0.8498 0.8496 0.8495 0.8493
2838.000000 0.8492 0.8490 0.8489 0.8487 0.8486
2843.000000 0.8485 0.8484 0.8482 0.8481 0.8478
2848.000000 0.8478 0.8475 0.8474 0.8471 0.8471
2853.000000 0.8468 0.8468 0.8466 0.8465 0.8463
2858.000000 0.8462 0.8460 0.8459 0.8457 0.8456
2863.000000 0.8456 0.8457 0.8459 0.8461 0.8463
2868.000000 0.8465 0.8467 0.8468 0.8471 0.8473
2873.000000 0.8475 0.8477 0.8478 0.8481 0.8482
2878.000000 0.8484 0.8486 0.8488 0.8489 0.8491
2883.000000 0.8492 0.8494 0.8495 0.8497 0.8497
2888.000000 0.8498 0.8498 0.8499 0.8499 0.8500
2893.000000 0.8500 0.8500 0.8500 0.8501 0.8501
2898.000000 0.8502 0.8502 0.8502 0.8501 0.8501
2903.000000 0.8500 0.8499 0.8498 0.8497 0.8496
2908.000000 0.8495 0.8493 0.8492 0.8490 0.8488
2913.000000 0.8486 0.8484 0.8482 0.8480 0.8473
2918.000000 0.8467 0.8459 0.8451 0.8443 0.8435
2923.000000 0.8428 0.8421 0.8416 0.8412 0.8407
2928.000000 0.8403 0.8399 0.8395 0.8391 0.8387
2933.000000 0.8386 0.8385 0.8384 0.8383 0.8382
2938.000000 0.8381 0.8381 0.8382 0.8383 0.8384
2943.000000 0.8385 0.8387 0.8388 0.8389 0.8390
2948.000000 0.8391 0.8392 0.8393 0.8394 0.8395
2953.000000 0.8397 0.8399 0.8401 0.8404 0.8406
2958.000000 0.8408 0.8410 0.8413 0.8415 0.8418
2963.000000 0.8420 0.8421 0.8424 0.8427 0.8428
2968.000000 0.8432 0.8435 0.8438 0.8441 0.8444
2973.000000 0.8447 0.8451 0.8454 0.8457 0.8460
2978.000000 0.8463 0.8465 0.8468 0.8468 0.8471
2983.000000 0.8473 0.8475 0.8475 0.8478 0.8478
2988.000000 0.8481 0.8482 0.8484 0.8486 0.8488
2993.000000 0.8489 0.8491 0.8491 0.8492 0.8493
2998.000000 0.8494 0.8494 0.8495 0.8496 0.8497
3003.000000 0.8498 0.8499 0.8499 0.8500 0.8501
3008.000000 0.8502 0.8503 0.8504 0.8504 0.8505
3013.000000 0.8505 0.8505 0.8505 0.8505 0.8504
3018.000000 0.8504 0.8504 0.8504 0.8503 0.8503
3023.000000 0.8502 0.8502 0.8501 0.8501 0.8500
3028.000000 0.8500 0.8500 0.8500 0.8499 0.8498
3033.000000 0.8497 0.8497 0.8496 0.8496 0.8495
3038.000000 0.8495 0.8494 0.8494 0.8493 0.8493
3043.000000 0.8492 0.8491 0.8490 0.8490 0.8489
3048.000000 0.8489 0.8488 0.8488 0.8487 0.8487
3053.000000 0.8486 0.8485 0.8484 0.8484 0.8483
3058.000000 0.8483 0.8482 0.8482 0.8481 0.8481
3063.000000 0.8482 0.8483 0.8483 0.8484 0.8484
3068.000000 0.8485 0.8488 0.8492 0.8495 0.8499
3073.000000 0.8502 0.8506 0.8509 0.8513 0.8516
3078.000000 0.8518 0.8520 0.8521 0.8523 0.8525
3083.000000 0.8525 0.8527 0.8528 0.8528 0.8530
3088.000000 0.8531 0.8531 0.8531 0.8530 0.8528
3093.000000 0.8528 0.8528 0.8527 0.8527 0.8525
3098.000000 0.8525 0.8524 0.8524 0.8523 0.8523
3103.000000 0.8521 0.8521 0.8521 0.8521 0.8520
3108.000000 0.8520 0.8518 0.8518 0.8518 0.8518
3113.000000 0.8517 0.8517 0.8516 0.8516 0.8515
3118.000000 0.8515 0.8514 0.8514 0.8514 0.8514
3123.000000 0.8514 0.8515 0.8515 0.8515 0.8515
3128.000000 0.8516 0.8516 0.8516 0.8516 0.8517
3133.000000 0.8517 0.8517 0.8517 0.8518 0.8518
3138.000000 0.8518 0.8518 0.8518 0.8518 0.8518
3143.000000 0.8518 0.8520 0.8520 0.8520 0.8520
3148.000000 0.8521 0.8521 0.8521 0.8521 0.8521
3153.000000 0.8521 0.8521 0.8521 0.8523 0.8523
3158.000000 0.8523 0.8523 0.8523 0.8523 0.8523
3163.000000 0.8523 0.8523 0.8521 0.8521 0.8521
3168.000000 0.8521 0.8521 0.8521 0.8521 0.8521
3173.000000 0.8521 0.8521 0.8521 0.8521 0.8521
3178.000000 0.8521 0.8521 0.8521 0.8521 0.8521
3183.000000 0.8521 0.8521 0.8520 0.8520 0.8520
3188.000000 0.8520 0.8520 0.8520 0.8520 0.8520
3193.000000 0.8520 0.8520 0.8520 0.8520 0.8520
3198.000000 0.8520 0.8518 0.8518 0.8518 0.8518
3203.000000 0.8518 0.8518 0.8518 0.8518 0.8518
3208.000000 0.8518 0.8518 0.8518 0.8518 0.8518
3213.000000 0.8518 0.8518 0.8518 0.8518 0.8518
3218.000000 0.8518 0.8518 0.8518 0.8518 0.8518
3223.000000 0.8518 0.8518 0.8517 0.8517 0.8517
3228.000000 0.8517 0.8516 0.8516 0.8515 0.8515
3233.000000 0.8515 0.8515 0.8514 0.8514 0.8513
3238.000000 0.8513 0.8513 0.8513 0.8512 0.8512
3243.000000 0.8512 0.8512 0.8511 0.8511 0.8510
3248.000000 0.8510 0.8510 0.8510 0.8509 0.8509
3253.000000 0.8508 0.8508 0.8508 0.8508 0.8507
3258.000000 0.8507 0.8507 0.8507 0.8506 0.8506
3263.000000 0.8505 0.8505 0.8505 0.8505 0.8504
3268.000000 0.8504 0.8504 0.8504 0.8503 0.8503
3273.000000 0.8503 0.8503 0.8503 0.8503 0.8503
3278.000000 0.8503 0.8502 0.8502 0.8502 0.8502
3283.000000 0.8502 0.8502 0.8502 0.8502 0.8502
3288.000000 0.8502 0.8501 0.8501 0.8501 0.8501
3293.000000 0.8501 0.8501 0.8501 0.8501 0.8500
3298.000000 0.8500 0.8500 0.8500 0.8500 0.8500
3303.000000 0.8500 0.8500 0.8499 0.8499 0.8499
3308.000000 0.8499 0.8499 0.8499 0.8499 0.8499
3313.000000 0.8498 0.8498 0.8498 0.8498 0.8498
3318.000000 0.8499 0.8499 0.8500 0.8500 0.8500
3323.000000 0.8500 0.8501 0.8501 0.8502 0.8502
3328.000000 0.8503 0.8503 0.8504 0.8504 0.8505
3333.000000 0.8505 0.8506 0.8506 0.8507 0.8507
3338.000000 0.8508 0.8508 0.8509 0.8509 0.8510
3343.000000 0.8510 0.8511 0.8511 0.8512 0.8512
3348.000000 0.8513 0.8513 0.8514 0.8514 0.8515
3353.000000 0.8515 0.8516 0.8516 0.8517 0.8517
3358.000000 0.8518 0.8518 0.8518 0.8518 0.8520
3363.000000 0.8520 0.8521 0.8521 0.8521 0.8521
3368.000000 0.8523 0.8523 0.8523 0.8523 0.8523
3373.000000 0.8523 0.8524 0.8524 0.8524 0.8524
3378.000000 0.8524 0.8524 0.8524 0.8524 0.8524
3383.000000 0.8524 0.8525 0.8525 0.8525 0.8525
3388.000000 0.8525 0.8525 0.8525 0.8525 0.8525
3393.000000 0.8525 0.8525 0.8525 0.8525 0.8525
3398.000000 0.8525 0.8525 0.8525 0.8525 0.8527
3403.000000 0.8527 0.8527 0.8527 0.8527 0.8527
3408.000000 0.8527 0.8527 0.8527 0.8527 0.8528
3413.000000 0.8528 0.8528 0.8528 0.8528 0.8528
3418.000000 0.8528 0.8528 0.8528 0.8528 0.8528
3423.000000 0.8528 0.8528 0.8528 0.8528 0.8528
3428.000000 0.8530 0.8530 0.8530 0.8530 0.8531
3433.000000 0.8531 0.8531 0.8531 0.8531 0.8531
3438.000000 0.8532 0.8532 0.8532 0.8532 0.8533
3443.000000 0.8533 0.8533 0.8533 0.8533 0.8533
3448.000000 0.8534 0.8534 0.8534 0.8534 0.8535
3453.000000 0.8535 0.8535 0.8535 0.8535 0.8535
3458.000000 0.8536 0.8536 0.8536 0.8536 0.8537
3463.000000 0.8537 0.8537 0.8537 0.8537 0.8537
3468.000000 0.8538 0.8538 0.8538 0.8538 0.8538
3473.000000 0.8538 0.8538 0.8538 0.8538 0.8538
3478.000000 0.8538 0.8537 0.8537 0.8537 0.8537
3483.000000 0.8537 0.8537 0.8537 0.8537 0.8537
3488.000000 0.8537 0.8537 0.8537 0.8537 0.8537
3493.000000 0.8537 0.8537 0.8536 0.8536 0.8536
3498.000000 0.8536 0.8536 0.8536 0.8536 0.8536
3503.000000 0.8536 0.8536 0.8536 0.8536 0.8536
3508.000000 0.8536 0.8536 0.8536 0.8536 0.8536
3513.000000 0.8536 0.8537 0.8537 0.8537 0.8537
3518.000000 0.8538 0.8538 0.8538 0.8538 0.8539
3523.000000 0.8539 0.8539 0.8539 0.8540 0.8540
3528.000000 0.8541 0.8541 0.8541 0.8541 0.8542
3533.000000 0.8542 0.8542 0.8542 0.8543 0.8543
3538.000000 0.8543 0.8543 0.8544 0.8544 0.8544
3543.000000 0.8545 0.8546 0.8546 0.8547 0.8547
3548.000000 0.8548 0.8549 0.8550 0.8550 0.8551
3553.000000 0.8552 0.8553 0.8553 0.8554 0.8555
3558.000000 0.8556 0.8556 0.8557 0.8558 0.8559
3563.000000 0.8559 0.8560 0.8561 0.8562 0.8562
3568.000000 0.8563 0.8563 0.8563 0.8563 0.8562
3573.000000 0.8560 0.8559 0.8557 0.8556 0.8554
3578.000000 0.8553 0.8551 0.8550 0.8548 0.8547
3583.000000 0.8545 0.8544 0.8542 0.8540 0.8539
3588.000000 0.8538 0.8538 0.8538 0.8538 0.8539
3593.000000 0.8539 0.8539 0.8539 0.8539 0.8539
3598.000000 0.8539 0.8539 0.8539 0.8539 0.8539
3603.000000 0.8539 0.8539 0.8539 0.8539 0.8539
3608.000000 0.8539 0.8539 0.8539 0.8539 0.8539
3613.000000 0.8539 0.8539 0.8539 0.8539 0.8539
3618.000000 0.8539 0.8539 0.8539 0.8538 0.8538
3623.000000 0.8538 0.8538 0.8538 0.8538 0.8538
3628.000000 0.8538 0.8538 0.8538 0.8538 0.8538
3633.000000 0.8537 0.8537 0.8537 0.8537 0.8537
3638.000000 0.8537 0.8537 0.8537 0.8537 0.8537
3643.000000 0.8537 0.8537 0.8536 0.8536 0.8535
3648.000000 0.8535 0.8534 0.8534 0.8533 0.8533
3653.000000 0.8532 0.8532 0.8531 0.8531 0.8530
3658.000000 0.8530 0.8528 0.8528 0.8528 0.8528
3663.000000 0.8527 0.8527 0.8525 0.8525 0.8525
3668.000000 0.8525 0.8524 0.8524 0.8523 0.8523
3673.000000 0.8523 0.8523 0.8524 0.8525 0.8525
3678.000000 0.8525 0.8527 0.8528 0.8528 0.8528
3683.000000 0.8530 0.8531 0.8532 0.8533 0.8533
3688.000000 0.8534 0.8535 0.8536 0.8537 0.8539
3693.000000 0.8540 0.8541 0.8542 0.8543 0.8544
3698.000000 0.8545 0.8546 0.8548 0.8549 0.8549
3703.000000 0.8549 0.8549 0.8548 0.8548 0.8547
3708.000000 0.8546 0.8545 0.8545 0.8544 0.8544
3713.000000 0.8543 0.8542 0.8541 0.8541 0.8540
3718.000000 0.8540 0.8540 0.8540 0.8540 0.8540
3723.000000 0.8540 0.8540 0.8540 0.8541 0.8541
3728.000000 0.8541 0.8541 0.8542 0.8542 0.8542
3733.000000 0.8542 0.8543 0.8543 0.8543 0.8543
3738.000000 0.8543 0.8543 0.8543 0.8543 0.8543
3743.000000 0.8543 0.8543 0.8543 0.8543 0.8543
3748.000000 0.8543 0.8542 0.8542 0.8542 0.8542
3753.000000 0.8542 0.8542 0.8542 0.8542 0.8541
3758.000000 0.8541 0.8541 0.8541 0.8541 0.8541
3763.000000 0.8541 0.8542 0.8542 0.8543 0.8543
3768.000000 0.8544 0.8544 0.8545 0.8545 0.8546
3773.000000 0.8546 0.8547 0.8547 0.8548 0.8548
3778.000000 0.8549 0.8549 0.8550 0.8551 0.8552
3783.000000 0.8553 0.8554 0.8554 0.8555 0.8556
3788.000000 0.8557 0.8558 0.8559 0.8560 0.8561
3793.000000 0.8561 0.8561
##END=
